#######################################
### Exact MIP solver for the HHCRSP ###
#######################################
-- Instance file: new-instances/HHCRSP_300_60_2_1.0_R_R.txt
-- Max threads: 4
-- Time limit: 999999 seconds
-- Use initial solution: No
Trivial flow violations prevented generating 1184186 variables.
Version identifier: 20.1.0.0 | 2020-11-10 | 9bedb6d68
CPXPARAM_Threads                                 4
CPXPARAM_TimeLimit                               999999
Parallel mode: deterministic, using up to 4 threads for concurrent optimization:
 * Starting dual Simplex on 1 thread...
 * Starting Barrier on 3 threads...
Tried aggregator 1 time.
LP Presolve eliminated 46260 rows and 10276 columns.
Reduced LP has 1233250 rows, 1170227 columns, and 28131276 nonzeros.
Presolve time = 32.11 sec. (6155.30 ticks)
Symmetry aggregator did 1983832 additional substitutions.

Iteration log . . .
Iteration:     1   Dual objective     =             0.000000
Iteration:  1368   Dual objective     =           407.333333

Dual crossover.
  Dual:  Fixing 2174 variables.
     2173 DMoves:  Infeasibility  1.49147361e-12  Objective  4.11333333e+02
        0 DMoves:  Infeasibility  6.99246216e-13  Objective  4.11333333e+02
  Dual:  Pushed 62, exchanged 2112.
  Primal:  Fixing 1220 variables.
     1219 PMoves:  Infeasibility  0.00000000e+00  Objective  4.11333333e+02
        0 PMoves:  Infeasibility  0.00000000e+00  Objective  4.11333333e+02
  Primal:  Pushed 1067, exchanged 153.

Dual simplex solved model.


Solution status from MIP model:
-- Processing time: 53.348 sec.
-- Memory used: 1076.92 MB
-- Best bound: inf
-- Obj value: 411.333
-- Gap: inf%
-- Total distance: 1234
-- Total tardiness: 0
-- Largest tardiness: 0
